1 3 100 71979.93
1 3 200 70678.06
1 3 300 71866.75
2 3 100 77083.35
2 3 200 78140.28
2 3 300 78178.76
3 3 100 77646.17
3 3 200 77387.24
3 3 300 77604.70
4 3 100 75379.20
4 3 200 75490.86
4 3 300 76563.74
5 3 100 72956.61
5 3 200 74467.71
5 3 300 73099.31
